h = 4;
v = 4;

demand_per_h = [3, 5, 2, 4];
demand_per_v = [2, 4, 1, 5];

cost_per_house = [| 2, 3, 1, 2
                  | 1, 2, 2, 3
                  | 2, 1, 3, 2
                  | 2, 1, 3, 3|];
                  
cost_per_permit = [| 2, 4, 1, 1
                   | 2, 1, 2, 3
                   | 1, 2, 2, 2
                   | 3, 4, 1, 3|];

m = 2;